100 100 100
50
5 86 100
91 67 43
48 46 24
69 20 85
33 87 77
79 38 88
8 98 93
6 75 83
7 80 92
13 75 100
6 93 67
41 87 97
78 79 43
17 90 89
3 95 84
46 76 68
23 71 94
48 79 74
46 31 34
45 45 32
39 71 73
4 91 73
76 35 86
77 50 70
70 93 56
96 69 41
20 66 87
23 84 80
45 69 83
27 74 96
92 73 13
97 31 69
9 78 96
87 88 28
41 77 69
76 74 54
16 74 81
11 86 98
37 72 97
68 100 20
28 74 100
16 81 97
18 93 68
76 5 72
29 94 78
27 82 76
40 68 93
33 66 91
8 98 68
1 84 70
